set FLIGHTS := ITHACA-NEWARK NEWARK-BOSTON ITHACA-BOSTON;
set CLASSES := Y B M;

param prices: ITHACA-NEWARK NEWARK-BOSTON ITHACA-BOSTON :=
Y 300 160 360
B 220 130 280
M 100 80 140;

param nb_seats := 30;

param nb_customers: ITHACA-NEWARK NEWARK-BOSTON ITHACA-BOSTON :=
Y 4 8 3
B 8 13 10
M 22 20 18;